N = 80;
W = 100;
H = 100;
ItemWidth = [ 2, 37, 29, 18, 59, 44, 95, 68, 18, 65, 27, 4, 76, 26, 50, 83, 50, 78, 99, 54, 84, 68, 89, 80, 78, 93, 70, 67, 97, 94, 77, 88, 47, 71, 82, 76, 86, 84, 84, 35, 68, 89, 94, 86, 85, 31, 79, 79, 77, 71, 85, 70, 69, 73, 77, 95, 34, 83, 88, 88, 100, 85, 76, 34, 69, 92, 82, 89, 90, 94, 27, 82, 90, 67, 86, 93, 91, 78, 81, 24 ];
ItemHeight = [ 98, 96, 94, 94, 93, 92, 89, 87, 86, 82, 78, 77, 75, 74, 71, 66, 66, 55, 55, 53, 49, 47, 47, 44, 44, 44, 43, 40, 39, 38, 37, 36, 35, 33, 33, 33, 32, 31, 31, 30, 30, 27, 27, 26, 26, 26, 23, 23, 23, 22, 22, 21, 21, 20, 20, 17, 17, 15, 15, 15, 14, 14, 13, 13, 12, 11, 11, 10, 9, 9, 9, 8, 7, 6, 6, 4, 3, 2, 1, 1 ];
